PROJECT = { A, B, C, D, E, F, G, H, I, J};

P = 6;

travel_costs = [| 0, 2, 2, 5, 2, 1, 3, 6, 3, 2
                | 1, 0, 2, 2, 3, 2, 1, 6, 3, 4
                | 2, 1, 0, 3, 4, 3, 3, 7, 3, 5
                | 4, 1, 4, 0, 1, 5, 2, 7, 7, 1
                | 2, 2, 1, 3, 0, 5, 6, 1, 1, 2
                | 5, 3, 2, 4, 1, 0, 5, 3, 4, 2
                | 4, 4, 1, 1, 5, 4, 0, 1, 2, 2
                | 4, 3, 6, 3, 3, 2, 1, 0, 5, 6
                | 5, 6, 2, 3, 4, 6, 1, 3, 0, 3
                | 2, 2, 3, 4, 1, 2, 5, 3, 4, 0 |];
                                         
project_with_precedences = { A, B, D, H};
project_must_be_done = {B, A};

precedences = [| ARCHI, ING, ELEC
               | ING, ELEC, ARCHI
               | ING, ING, ING
               | ING, ARCHI, ELEC
               | ING, ING, ING
               | ING, ING, ING
               | ING, ING, ING
               | ING, ARCHI, ELEC
               | ING, ING, ING
               | ING, ING, ING |];
                                          
revenu = [10, 14, 13, 24, 14, 20, 14, 13, 19, 15];